40	100	100	100
15	4	1
43	33	31
27	8	10
31	17	15
31	16	33
45	1	14
4	24	8
26	36	7
17	14	31
15	21	32
21	40	31
41	20	28
40	48	2
29	30	8
17	30	44
8	24	22
21	28	22
27	26	45
43	39	31
48	18	38
3	37	17
8	2	35
5	24	41
7	20	5
49	20	37
17	20	16
26	24	34
7	17	23
27	49	39
6	16	1
10	43	26
34	43	26
3	2	29
16	45	1
23	48	44
19	39	17
1	30	27
29	2	27
20	3	23
48	42	48
